57
5
0 5 6 9 13 14 15 16 18 20 21 23 24 25 26 28 29 30 31 33 36 38 39 42 43 45 46 47 49 50 51 55 56
1 5 8 11 14 16 19 21 22 23 24 26 27 29 31 32 33 34 36 38 43 45 46 47 51 52 54 55 56
2 6 14 15 16 18 21 23 24 26 27 28 29 32 35 36 37 38 39 42 44 45 48 53 56
3 7 11 14 17 18 30 32 34 36 37 40 41 47 48 49 50 52 54 56
4 9 10 12 17 50 53
